\ Model PLNE
\ LP format - for model browsing. Use MPS format to capture full model detail.
Maximize
  x[0,0] + x[1,0] + x[2,0] + x[3,0] + x[0,1] + x[1,1] + x[2,1] + x[3,1]
   + x[0,2] + x[1,2] + x[2,2] + x[3,2] + x[0,3] + x[1,3] + x[2,3] + x[3,3]
   + x[0,4] + x[1,4] + x[2,4] + x[3,4]
Subject To
 t1_1[0]: y[0,0,1] + y[0,1,1] + y[0,2,1] + y[0,3,1] + y[0,4,1] = 3
 t1_1[1]: = 0
 t1_1[2]: y[2,0,1] + y[2,0,2] + y[2,0,3] + y[2,1,1] + y[2,1,2] + y[2,1,3]
   + y[2,2,1] + y[2,2,2] + y[2,2,3] + y[2,3,1] + y[2,3,2] + y[2,3,3]
   + y[2,4,1] + y[2,4,2] + y[2,4,3] = 3
 t1_1[3]: y[3,0,1] + y[3,1,1] + y[3,2,1] + y[3,3,1] + y[3,4,1] = 3
 t2_1[0]: z[0,0,1] + z[0,0,2] + z[1,0,1] + z[1,0,2] + z[2,0,1] + z[2,0,2]
   + z[3,0,1] + z[3,0,2] = 2
 t2_1[1]: z[0,1,1] + z[1,1,1] + z[2,1,1] + z[3,1,1] = 1
 t2_1[2]: z[0,2,1] + z[0,2,2] + z[1,2,1] + z[1,2,2] + z[2,2,1] + z[2,2,2]
   + z[3,2,1] + z[3,2,2] = 3
 t2_1[3]: z[0,3,1] + z[1,3,1] + z[2,3,1] + z[3,3,1] = 1
 t2_1[4]: z[0,4,1] + z[1,4,1] + z[2,4,1] + z[3,4,1] = 2
 t3[1,0,0]: y[0,0,1] + y[0,1,1] + y[0,2,1] + y[0,3,1] <= 3
 t3[2,0,0]: y[2,0,1] + y[2,1,1] <= 1
 t3[3,0,1]: y[2,0,2] + y[2,1,2] <= 1
 t3[4,0,2]: y[2,0,3] + y[2,1,3] <= 1
 t3[5,0,0]: y[3,0,1] + y[3,1,1] + y[3,2,1] + y[3,3,1] <= 3
 t3[6,1,0]: y[0,1,1] + y[0,2,1] + y[0,3,1] + y[0,4,1] <= 3
 t3[7,1,0]: y[2,1,1] + y[2,2,1] <= 1
 t3[8,1,1]: y[2,1,2] + y[2,2,2] <= 1
 t3[9,1,2]: y[2,1,3] + y[2,2,3] <= 1
 t3[10,1,0]: y[3,1,1] + y[3,2,1] + y[3,3,1] + y[3,4,1] <= 3
 t3[11,2,0]: y[0,2,1] + y[0,3,1] + y[0,4,1] <= 3
 t3[12,2,0]: y[2,2,1] + y[2,3,1] <= 1
 t3[13,2,1]: y[2,2,2] + y[2,3,2] <= 1
 t3[14,2,2]: y[2,2,3] + y[2,3,3] <= 1
 t3[15,2,0]: y[3,2,1] + y[3,3,1] + y[3,4,1] <= 3
 t3[16,3,0]: y[0,3,1] + y[0,4,1] <= 3
 t3[17,3,0]: y[2,3,1] + y[2,4,1] <= 1
 t3[18,3,1]: y[2,3,2] + y[2,4,2] <= 1
 t3[19,3,2]: y[2,3,3] + y[2,4,3] <= 1
 t3[20,3,0]: y[3,3,1] + y[3,4,1] <= 3
 t3[21,4,0]: y[0,4,1] <= 3
 t3[22,4,0]: y[2,4,1] <= 1
 t3[23,4,1]: y[2,4,2] <= 1
 t3[24,4,2]: y[2,4,3] <= 1
 t3[25,4,0]: y[3,4,1] <= 3
 t4[1,0,0]: z[0,0,1] + z[1,0,1] <= 1
 t4[2,0,1]: z[0,0,2] + z[1,0,2] <= 1
 t4[3,0,0]: z[1,0,1] + z[2,0,1] <= 1
 t4[4,0,1]: z[1,0,2] + z[2,0,2] <= 1
 t4[5,0,0]: z[2,0,1] + z[3,0,1] <= 1
 t4[6,0,1]: z[2,0,2] + z[3,0,2] <= 1
 t4[7,0,0]: z[3,0,1] <= 1
 t4[8,0,1]: z[3,0,2] <= 1
 t4[9,1,0]: z[0,1,1] + z[1,1,1] <= 1
 t4[10,1,0]: z[1,1,1] + z[2,1,1] <= 1
 t4[11,1,0]: z[2,1,1] + z[3,1,1] <= 1
 t4[12,1,0]: z[3,1,1] <= 1
 t4[13,2,0]: z[0,2,1] + z[1,2,1] <= 1
 t4[14,2,1]: z[0,2,2] + z[1,2,2] + z[2,2,2] <= 2
 t4[15,2,0]: z[1,2,1] + z[2,2,1] <= 1
 t4[16,2,1]: z[1,2,2] + z[2,2,2] + z[3,2,2] <= 2
 t4[17,2,0]: z[2,2,1] + z[3,2,1] <= 1
 t4[18,2,1]: z[2,2,2] + z[3,2,2] <= 2
 t4[19,2,0]: z[3,2,1] <= 1
 t4[20,2,1]: z[3,2,2] <= 2
 t4[21,3,0]: z[0,3,1] + z[1,3,1] <= 1
 t4[22,3,0]: z[1,3,1] + z[2,3,1] <= 1
 t4[23,3,0]: z[2,3,1] + z[3,3,1] <= 1
 t4[24,3,0]: z[3,3,1] <= 1
 t4[25,4,0]: z[0,4,1] + z[1,4,1] + z[2,4,1] <= 2
 t4[26,4,0]: z[1,4,1] + z[2,4,1] + z[3,4,1] <= 2
 t4[27,4,0]: z[2,4,1] + z[3,4,1] <= 2
 t4[28,4,0]: z[3,4,1] <= 2
 t5[2,0,0]: - y[2,0,1] + y[2,1,2] <= 0
 t5[3,0,1]: - y[2,0,2] + y[2,1,3] <= 0
 t5[7,1,0]: - y[2,1,1] + y[2,2,2] <= 0
 t5[8,1,1]: - y[2,1,2] + y[2,2,3] <= 0
 t5[12,2,0]: - y[2,2,1] + y[2,3,2] <= 0
 t5[13,2,1]: - y[2,2,2] + y[2,3,3] <= 0
 t6[1,0,0]: - z[0,0,1] + z[1,0,2] <= 0
 t6[3,0,0]: - z[1,0,1] + z[2,0,2] <= 0
 t6[13,2,0]: - z[0,2,1] + z[1,2,2] <= 0
 t6[15,2,0]: - z[1,2,1] + z[2,2,2] <= 0
 xi[0,0]: - x[0,0] + [ y[0,0,1] * z[0,0,1] + y[0,0,1] * z[0,0,2] ] = 0
 xi[1,0]: - x[1,0] = 0
 xi[2,0]: - x[2,0] + [ y[2,0,1] * z[2,0,1] + y[2,0,1] * z[2,0,2]
   + y[2,0,2] * z[2,0,1] + y[2,0,2] * z[2,0,2] + y[2,0,3] * z[2,0,1]
   + y[2,0,3] * z[2,0,2] ] = 0
 xi[3,0]: - x[3,0] + [ y[3,0,1] * z[3,0,1] + y[3,0,1] * z[3,0,2] ] = 0
 xi[0,1]: - x[0,1] + [ y[0,1,1] * z[0,1,1] ] = 0
 xi[1,1]: - x[1,1] = 0
 xi[2,1]: - x[2,1] + [ y[2,1,1] * z[2,1,1] + y[2,1,2] * z[2,1,1]
   + y[2,1,3] * z[2,1,1] ] = 0
 xi[3,1]: - x[3,1] + [ y[3,1,1] * z[3,1,1] ] = 0
 xi[0,2]: - x[0,2] + [ y[0,2,1] * z[0,2,1] + y[0,2,1] * z[0,2,2] ] = 0
 xi[1,2]: - x[1,2] = 0
 xi[2,2]: - x[2,2] + [ y[2,2,1] * z[2,2,1] + y[2,2,1] * z[2,2,2]
   + y[2,2,2] * z[2,2,1] + y[2,2,2] * z[2,2,2] + y[2,2,3] * z[2,2,1]
   + y[2,2,3] * z[2,2,2] ] = 0
 xi[3,2]: - x[3,2] + [ y[3,2,1] * z[3,2,1] + y[3,2,1] * z[3,2,2] ] = 0
 xi[0,3]: - x[0,3] + [ y[0,3,1] * z[0,3,1] ] = 0
 xi[1,3]: - x[1,3] = 0
 xi[2,3]: - x[2,3] + [ y[2,3,1] * z[2,3,1] + y[2,3,2] * z[2,3,1]
   + y[2,3,3] * z[2,3,1] ] = 0
 xi[3,3]: - x[3,3] + [ y[3,3,1] * z[3,3,1] ] = 0
 xi[0,4]: - x[0,4] + [ y[0,4,1] * z[0,4,1] ] = 0
 xi[1,4]: - x[1,4] = 0
 xi[2,4]: - x[2,4] + [ y[2,4,1] * z[2,4,1] + y[2,4,2] * z[2,4,1]
   + y[2,4,3] * z[2,4,1] ] = 0
 xi[3,4]: - x[3,4] + [ y[3,4,1] * z[3,4,1] ] = 0
Bounds
Binaries
 x[0,0] x[1,0] x[2,0] x[3,0] x[0,1] x[1,1] x[2,1] x[3,1] x[0,2] x[1,2]
 x[2,2] x[3,2] x[0,3] x[1,3] x[2,3] x[3,3] x[0,4] x[1,4] x[2,4] x[3,4]
 y[0,0,1] z[0,0,1] z[0,0,2] z[1,0,1] z[1,0,2] y[2,0,1] y[2,0,2] y[2,0,3]
 z[2,0,1] z[2,0,2] y[3,0,1] z[3,0,1] z[3,0,2] y[0,1,1] z[0,1,1] z[1,1,1]
 y[2,1,1] y[2,1,2] y[2,1,3] z[2,1,1] y[3,1,1] z[3,1,1] y[0,2,1] z[0,2,1]
 z[0,2,2] z[1,2,1] z[1,2,2] y[2,2,1] y[2,2,2] y[2,2,3] z[2,2,1] z[2,2,2]
 y[3,2,1] z[3,2,1] z[3,2,2] y[0,3,1] z[0,3,1] z[1,3,1] y[2,3,1] y[2,3,2]
 y[2,3,3] z[2,3,1] y[3,3,1] z[3,3,1] y[0,4,1] z[0,4,1] z[1,4,1] y[2,4,1]
 y[2,4,2] y[2,4,3] z[2,4,1] y[3,4,1] z[3,4,1]
End
